solution status: optimal solution found
objective value:                                   15
x30                                                 1 	(obj:1)
x32                                                 1 	(obj:1)
x34                                                 1 	(obj:1)
x35                                                 1 	(obj:1)
x37                                                 1 	(obj:1)
x40                                                 1 	(obj:1)
x41                                                 1 	(obj:1)
x43                                                 1 	(obj:1)
x44                                                 1 	(obj:1)
x49                                                 1 	(obj:1)
x50                                                 1 	(obj:1)
x51                                                 1 	(obj:1)
x52                                                 1 	(obj:1)
x53                                                 1 	(obj:1)
x54                                                 1 	(obj:1)
$_25__5_y                                           4 	(obj:0)
$_25__5_z                                          18 	(obj:0)
$_21__5_y                                          22 	(obj:0)
$_21__5_z                                          22 	(obj:0)
$_23__5_y                                          13 	(obj:0)
$_23__5_z                                          17 	(obj:0)
$_18__5_y                                          12 	(obj:0)
$_18__5_z                                          17 	(obj:0)
$_22__5_y                                          12 	(obj:0)
$_22__5_z                                          12 	(obj:0)
one.thingy.devices[3].thingy.vs0_y                    6 	(obj:0)
one.thingy.devices[3].thingy.vs0_z                   20 	(obj:0)
one.thingy.devices[0].thingy.vs0_y                   14 	(obj:0)
one.thingy.devices[0].thingy.vs0_z                   17 	(obj:0)
one.thingy.devices[1].thingy.vs0_y                   13 	(obj:0)
one.thingy.devices[1].thingy.vs0_z                   20 	(obj:0)
$_20__5_y                                          10 	(obj:0)
$_20__5_z                                          23 	(obj:0)
$_24__5_y                                           7 	(obj:0)
$_24__5_z                                           7 	(obj:0)
one.thingy.devices[2].thingy.vs0_y                    9 	(obj:0)
one.thingy.devices[2].thingy.vs0_z                   21 	(obj:0)
$_19__5_y                                          22 	(obj:0)
$_19__5_z                                          19 	(obj:0)
